NAME: rd100
COMMENT: Local search tour for rd100 (9549.402404563709)
TYPE: TOUR
DIMENSION: 100
TOUR_SECTION: 1 60 8 69 15 63 86 97 67 13 49 21 75 82 85 12 9 26 17 72 70 38 54 73 50 46 56 19 37 28 93 77 95 59 76 58 89 2 23 84 88 31 45 100 44 35 29 96 39 55 40 43 25 24 42 7 34 41 22 5 61 11 52 16 66 98 94 6 27 92 74 20 78 32 4 3 33 10 79 53 99 47 57 36 64 91 81 30 48 80 65 90 51 83 68 71 18 62 87 14 -1
EOF